\* The CC Problem *\
Minimize
Obj: 3.60945130855e-10 0 + 2.78295322267e-09 1 + 1.40881019651e-08 2
 + 2.22736546221e-08 3 + 4.84424486055e-08 4 + 7.78680694183e-08 5
 + 9.24025571927e-08 6 + 1.31277268843e-07 7 + 1.63152048408e-07 8
 + 2.7782706614e-07 9
Subject To
Shell_bound: 3.60945130855e-10 0 + 2.78295322267e-09 1 + 1.40881019651e-08 2
 + 2.22736546221e-08 3 + 4.84424486055e-08 4 + 7.78680694183e-08 5
 + 9.24025571927e-08 6 + 1.31277268843e-07 7 + 1.63152048408e-07 8
 + 2.7782706614e-07 9 >= 1
Bounds
0 free
1 free
2 free
3 free
4 free
5 free
6 free
7 free
8 free
9 free
Generals
0
1
2
3
4
5
6
7
8
9
End
